c preprocessed version of graph03, 70 vertices, 281 edges
p td 70 281
0 1
0 2
0 3
0 60
36 0
52 0
1 2
1 60
1 57
36 1
2 3
2 60
2 6
32 2
36 2
52 2
4 3
36 3
3 60
5 4
9 4
4 22
4 60
21 4
23 4
34 4
53 4
5 6
5 22
5 57
5 21
5 23
7 6
40 6
30 6
44 6
41 6
8 6
10 6
53 6
8 7
7 12
7 27
43 7
7 30
7 44
7 42
7 41
7 40
39 7
11 7
59 7
9 8
8 41
8 30
8 40
10 8
45 8
46 8
19 8
62 8
10 9
9 36
45 9
46 9
63 9
11 9
11 10
10 45
10 40
10 46
11 12
11 16
11 26
11 56
11 27
11 46
38 11
39 11
63 11
11 45
13 12
27 12
61 12
58 12
13 14
13 22
33 13
13 32
26 13
31 13
15 14
33 14
32 14
35 14
31 14
16 15
15 57
15 55
15 56
58 15
17 16
16 57
16 55
58 16
54 16
17 18
17 20
19 17
48 17
19 18
18 20
48 18
52 18
19 20
35 19
34 19
50 19
51 19
24 19
21 20
48 20
21 22
21 23
23 22
25 22
45 22
24 23
24 25
24 26
24 57
24 29
24 36
24 35
24 34
24 50
24 51
24 52
24 53
54 24
26 25
25 42
36 25
25 60
29 25
26 27
26 38
26 36
26 39
63 26
29 26
28 27
28 29
28 61
28 59
28 62
58 28
29 30
29 36
59 29
62 29
29 61
58 29
31 30
40 30
30 41
31 32
31 33
47 31
31 48
31 49
31 37
33 32
49 32
34 33
37 33
35 34
48 34
50 34
35 36
50 35
52 35
37 36
37 38
37 43
48 37
47 37
49 37
39 38
38 56
38 63
39 40
39 42
39 63
40 41
42 41
42 43
44 42
59 42
44 43
59 43
62 43
45 44
59 44
62 44
45 46
47 45
47 48
47 49
51 47
48 49
49 50
51 52
51 54
51 53
52 53
52 54
53 54
54 55
56 55
57 55
63 55
58 55
56 57
58 56
58 57
58 59
61 58
58 62
59 60
59 61
59 62
62 61
64 52
64 51
64 53
64 54
64 67
64 65
64 66
64 68
64 47
64 24
65 1
65 67
65 66
65 68
65 46
65 28
66 67
66 27
66 68
66 50
67 4
67 5
67 21
67 23
67 68
68 32
68 61
68 24
69 64
69 65
69 66
69 67
69 68
69 6
69 11
69 17
69 18
69 19
69 20
69 27
69 31
69 57
69 55
69 41
69 47
69 48
69 49
69 37
